p cnf 8 18 
 chaque sommet à au moins une couleur
c sommet 0 à au moins une couleur
1 2 0
c sommet 1 à au moins une couleur
3 4 0
c sommet 2 à au moins une couleur
5 6 0
c sommet 3 à au moins une couleur
7 8 0
c pour le sommet 0, aucun de ses voisins ne doit avoir la meme couleur
-1 -3 0
-1 -7 0
-2 -4 0
-2 -8 0
c pour le sommet 1, aucun de ses voisins ne doit avoir la meme couleur
-3 -1 0
-3 -5 0
-4 -2 0
-4 -6 0
c pour le sommet 2, aucun de ses voisins ne doit avoir la meme couleur
-5 -3 0
-5 -7 0
-6 -4 0
-6 -8 0
c pour le sommet 3, aucun de ses voisins ne doit avoir la meme couleur
-7 -1 0
-7 -5 0
-8 -2 0
-8 -6 0
